50
16260

308 551
509 6
750 279
450 765
177 767
920 814
866 121
203 501
809 544
743 906
81 989
905 301
48 952
568 342
366 219
277 67
480 879
592 254
543 93
152 116
224 576
542 282
469 680
775 438
316 911
772 955
770 197
442 31
354 470
732 688
462 747
199 535
752 272
504 840
143 912
598 429
635 99
909 75
116 586
18 459
16 282
678 197
886 227
996 711
427 449
704 730
951 390
626 202
655 373
135 218
